nN = 5;
nR = 15;
nH = 1;

a = [[22, 10, 18, 18, 7, 24, 21, 13, 19, 21, 7, 22, 7, 19, 16], [17, 11, 12, 19, 6, 20, 9, 20, 9, 21, 18, 15, 13, 21, 10], [17, 23, 7, 15, 11, 9, 15, 16, 17, 12, 12, 5, 23, 17, 17], [14, 11, 12, 18, 13, 23, 23, 18, 7, 12, 9, 13, 17, 8, 7], [15, 5, 16, 14, 15, 19, 18, 21, 23, 21, 18, 7, 14, 10, 10]];
c = [[[0, 0, 0, 0, 0, 0, 0, 0, 0, 0, 0, 0, 0, 0, 0], [45, 36, 34, 49, 38, 42, 40, 33, 33, 46, 46, 50, 38, 32, 35], [32, 47, 37, 35, 35, 36, 45, 40, 42, 45, 46, 48, 42, 30, 31], [38, 33, 31, 31, 48, 42, 37, 48, 33, 42, 42, 33, 39, 37, 42], [31, 43, 41, 43, 46, 34, 38, 42, 41, 39, 31, 46, 39, 44, 40]], [[0, 0, 0, 0, 0, 0, 0, 0, 0, 0, 0, 0, 0, 0, 0], [0, 0, 0, 0, 0, 0, 0, 0, 0, 0, 0, 0, 0, 0, 0], [34, 42, 36, 36, 48, 41, 50, 39, 35, 32, 32, 43, 47, 36, 42], [43, 47, 33, 36, 36, 32, 39, 43, 37, 37, 46, 37, 43, 43, 30], [31, 45, 49, 36, 43, 41, 50, 35, 41, 45, 42, 48, 30, 43, 40]], [[0, 0, 0, 0, 0, 0, 0, 0, 0, 0, 0, 0, 0, 0, 0], [0, 0, 0, 0, 0, 0, 0, 0, 0, 0, 0, 0, 0, 0, 0], [0, 0, 0, 0, 0, 0, 0, 0, 0, 0, 0, 0, 0, 0, 0], [35, 49, 49, 38, 36, 44, 34, 44, 49, 47, 44, 42, 34, 35, 38], [37, 44, 31, 49, 42, 48, 34, 42, 42, 43, 30, 34, 50, 34, 30]], [[0, 0, 0, 0, 0, 0, 0, 0, 0, 0, 0, 0, 0, 0, 0], [0, 0, 0, 0, 0, 0, 0, 0, 0, 0, 0, 0, 0, 0, 0], [0, 0, 0, 0, 0, 0, 0, 0, 0, 0, 0, 0, 0, 0, 0], [0, 0, 0, 0, 0, 0, 0, 0, 0, 0, 0, 0, 0, 0, 0], [47, 45, 31, 37, 34, 46, 36, 31, 50, 33, 33, 46, 36, 50, 31]], [[0, 0, 0, 0, 0, 0, 0, 0, 0, 0, 0, 0, 0, 0, 0], [0, 0, 0, 0, 0, 0, 0, 0, 0, 0, 0, 0, 0, 0, 0], [0, 0, 0, 0, 0, 0, 0, 0, 0, 0, 0, 0, 0, 0, 0], [0, 0, 0, 0, 0, 0, 0, 0, 0, 0, 0, 0, 0, 0, 0], [0, 0, 0, 0, 0, 0, 0, 0, 0, 0, 0, 0, 0, 0, 0]]];
Q = [[32], [41], [40], [33], [40]];

q = [[[8], [6], [6], [9], [5], [7], [21], [17], [16], [6], [8], [24], [20], [21], [21]], [[18], [18], [17], [21], [7], [19], [20], [18], [17], [25], [6], [19], [18], [9], [24]], [[11], [24], [15], [6], [14], [14], [13], [18], [21], [20], [25], [9], [11], [23], [23]], [[9], [24], [11], [7], [20], [16], [16], [16], [6], [14], [15], [12], [16], [12], [11]], [[20], [10], [19], [10], [15], [9], [22], [14], [13], [22], [23], [12], [25], [9], [21]]];
p = [0.52, 0.66, 0.65, 0.38, 0.88, 0.48, 0.32, 0.01, 0.35, 0.96, 0.65, 0.98, 0.41, 0.35, 0.88];
